set Citta := 1 2 3 4 5 6 7 8 9 10 11 12 13;

param raggio_max := 50;

param: x_citta y_citta:=
1 -400	400
2 250 -550
3 150 500
4 -700 0
5 -250 -550
6 700 -450
7 550 650
8 0 700
9 -600 750
10 450 700
11 -500 500
12 0 -800
13 700 -650
;